(set-option :print-success false)
(set-logic QF_UF)
(declare-sort U 0)
(declare-fun x () U)
(declare-fun y () U)
(assert (= x y))
(push)
(assert (not (= x y)))
(set-info :status unsat)
(check-sat)
(get-info :status)
(get-info :status-set)
(pop)
(set-info :status sat)
(check-sat)
(get-info :status)
(get-info :status-set)
(exit)
